28
63
108
135
170
216
250
286
317
358
388
432
466
505
537
568
617
656
674
718
757
790
836
876
904
944
980
1011
1032
1067
1110
1157
1197
1222
1280
1284
1331
1377
1420
1450
1489
1509
1561
1591
1619
1652
1680
1738
1773
